CMPL model generation - running

CMPL version: 1.11.0
Authors: Thomas Schleiff, Mike Steglich
Distributed under the GPLv3 

create model instance ...
write model instance ...
CMPL model generation - finished

Solver - running


Welcome to IBM(R) ILOG(R) CPLEX(R) Interactive Optimizer 12.7.1.0
  with Simplex, Mixed Integer & Barrier Optimizers
5725-A06 5725-A29 5724-Y48 5724-Y49 5724-Y54 5724-Y55 5655-Y21
Copyright IBM Corp. 1988, 2017.  All Rights Reserved.

Type 'help' for a list of available commands.
Type 'help' followed by a command name for more
information on commands.

CPLEX> Specified objective sense: MINIMIZE
Selected objective  name:  line[1]
Selected RHS        name:  RHS
Selected bound      name:  BOUND
Problem '/tmp/cmpl.T23368.mps' read.
Read time = 0.05 sec. (8.16 ticks)
CPLEX> CPXPARAM_Read_APIEncoding                        "UTF-8"
Tried aggregator 3 times.
MIP Presolve eliminated 19317 rows and 30846 columns.
MIP Presolve modified 340 coefficients.
Aggregator did 584 substitutions.
Reduced MIP has 2454 rows, 3163 columns, and 9259 nonzeros.
Reduced MIP has 2995 binaries, 0 generals, 0 SOSs, and 0 indicators.
Presolve time = 0.05 sec. (41.62 ticks)
Found incumbent of value 407.078521 after 0.07 sec. (53.75 ticks)
Probing fixed 5 vars, tightened 0 bounds.
Probing time = 0.01 sec. (3.97 ticks)
Tried aggregator 1 time.
MIP Presolve eliminated 0 rows and 5 columns.
MIP Presolve modified 18 coefficients.
Reduced MIP has 2454 rows, 3158 columns, and 9249 nonzeros.
Reduced MIP has 3158 binaries, 0 generals, 0 SOSs, and 0 indicators.
Presolve time = 0.01 sec. (7.92 ticks)
Probing time = 0.01 sec. (2.67 ticks)
Clique table members: 5066.
MIP emphasis: balance optimality and feasibility.
MIP search method: dynamic search.
Parallel mode: none, using 1 thread.
Root relaxation solution time = 0.01 sec. (4.21 ticks)

        Nodes                                         Cuts/
   Node  Left     Objective  IInf  Best Integer    Best Bound    ItCnt     Gap

*     0+    0                          407.0785      -40.3520           109.91%
      0     0       10.9370    21      407.0785       10.9370       66   97.31%
*     0+    0                           56.4537       10.9370            80.63%
*     0+    0                           11.5370       10.9370             5.20%
      0     0        cutoff             11.5370                     66    0.00%
Elapsed time = 0.12 sec. (85.95 ticks, tree = 0.01 MB, solutions = 3)

Root node processing (before b&c):
  Real time             =    0.12 sec. (87.44 ticks)
Sequential b&c:
  Real time             =    0.00 sec. (0.00 ticks)
                          ------------
Total (root+branch&cut) =    0.12 sec. (87.44 ticks)

Solution pool: 3 solutions saved.

MIP - Integer optimal solution:  Objective =  1.1536954000e+01
Solution time =    0.12 sec.  Iterations = 66  Nodes = 0
Deterministic time = 87.54 ticks  (728.37 ticks/sec)

CPLEX> Incumbent solution written to file '/tmp/cmpl.T23368.gsol'.
CPLEX> 
CMPL: Time used for model generation: 1 seconds
CMPL: Time used for solving the model: 1 seconds


Solution written to ASCII file: results/output_generated_conf_0/2016-06-06-4/fair-nonlinear.sol

Solver - finished
